15
1 0 3
2 0 4
2 1 1
3 0 1
3 1 5
3 2 5
4 0 3
4 1 2
4 2 4
4 3 1
5 0 5
5 1 3
5 2 3
5 3 6
5 4 6
6 0 5
6 1 3
6 2 5
6 3 3
6 4 3
6 5 3
7 0 3
7 1 2
7 2 7
7 3 5
7 4 2
7 5 2
7 6 4
8 0 5
8 1 7
8 2 1
8 3 4
8 4 1
8 5 2
8 6 2
8 7 5
9 0 1
9 1 3
9 2 4
9 3 6
9 4 1
9 5 3
9 6 4
9 7 1
9 8 2
10 0 3
10 1 5
10 2 5
10 3 7
10 4 7
10 5 2
10 6 1
10 7 7
10 8 5
10 9 4
11 0 4
11 1 4
11 2 4
11 3 3
11 4 7
11 5 4
11 6 5
11 7 1
11 8 7
11 9 3
11 10 2
12 0 4
12 1 2
12 2 7
12 3 4
12 4 2
12 5 3
12 6 6
12 7 6
12 8 6
12 9 2
12 10 5
12 11 3
13 0 4
13 1 2
13 2 7
13 3 3
13 4 2
13 5 5
13 6 3
13 7 6
13 8 4
13 9 5
13 10 4
13 11 4
13 12 2
14 0 3
14 1 1
14 2 4
14 3 3
14 4 1
14 5 7
14 6 3
14 7 6
14 8 1
14 9 4
14 10 4
14 11 6
14 12 5
14 13 7
